scion/scion/problems/cvrp/controlled/data/synthetic_controlled_canary_5.vrp
NAME : synthetic_controlled_canary_5
TYPE : CVRP
COMMENT : Scion controlled synthetic canary fixture
DIMENSION : 5
EDGE_WEIGHT_TYPE : EUC_2D
CAPACITY : 8
NODE_COORD_SECTION
1 0 0
2 2 0
3 4 0
4 0 3
5 0 6
DEMAND_SECTION
1 0
2 2
3 2
4 3
5 3
DEPOT_SECTION
1
-1
EOF
