scion/scion/problems/cvrp/controlled/data/synthetic_controlled_canary_5.sol
Route #1: 2 3
Route #2: 4 5
Cost : 20
